NAME : pds2566
COMMENT : Bonn VLSI data set with 2566 points
COMMENT : Uni Bonn, Research Institute for Discrete Math
COMMENT : Contributed by Andre Rohe
TYPE : TSP
DIMENSION : 2566
EDGE_WEIGHT_TYPE : EUC_2D
NODE_COORD_SECTION
1 0 10
2 0 100
3 0 102
4 0 103
5 0 111
6 0 112
7 0 118
8 0 121
9 0 127
10 0 130
11 0 136
12 0 139
13 0 145
14 0 148
15 0 166
16 0 175
17 0 184
18 0 19
19 0 193
20 0 28
21 0 32
22 0 33
23 0 37
24 0 43
25 0 46
26 0 55
27 0 64
28 0 73
29 0 82
30 0 91
31 2 102
32 2 106
33 2 107
34 2 111
35 2 112
36 2 115
37 2 116
38 2 117
39 2 12
40 2 122
41 2 124
42 2 127
43 2 128
44 2 132
45 2 133
46 2 136
47 2 137
48 2 138
49 2 14
50 2 143
51 2 149
52 2 150
53 2 152
54 2 153
55 2 156
56 2 157
57 2 159
58 2 16
59 2 160
60 2 163
61 2 166
62 2 179
63 2 18
64 2 193
65 2 195
66 2 21
67 2 23
68 2 25
69 2 26
70 2 27
71 2 28
72 2 30
73 2 32
74 2 33
75 2 34
76 2 35
77 2 37
78 2 39
79 2 40
80 2 42
81 2 44
82 2 51
83 2 58
84 2 59
85 2 60
86 2 62
87 2 64
88 2 65
89 2 69
90 2 71
91 2 72
92 2 73
93 2 74
94 2 76
95 2 78
96 2 79
97 2 80
98 2 81
99 2 83
100 2 84
101 2 85
102 2 87
103 2 88
104 2 89
105 2 91
106 2 93
107 2 94
108 2 96
109 3 109
110 3 130
111 5 11
112 5 14
113 5 19
114 5 23
115 5 31
116 5 39
117 5 41
118 5 44
119 5 48
120 5 52
121 5 55
122 5 68
123 5 7
124 5 77
125 5 86
126 5 93
127 5 96
128 8 0
129 8 62
130 8 69
131 8 83
132 9 12
133 9 21
134 9 37
135 9 42
136 9 62
137 9 65
138 9 69
139 9 83
140 9 91
141 9 94
142 10 12
143 10 165
144 10 178
145 10 18
146 10 21
147 10 30
148 10 37
149 10 40
150 10 42
151 10 51
152 10 63
153 10 65
154 10 70
155 10 76
156 10 83
157 10 91
158 10 94
159 11 12
160 11 145
161 11 165
162 11 178
163 11 18
164 11 189
165 11 21
166 11 30
167 11 37
168 11 40
169 11 42
170 11 5
171 11 51
172 11 53
173 11 62
174 11 65
175 11 69
176 11 76
177 11 83
178 11 91
179 11 94
180 12 45
181 12 65
182 12 8
183 14 0
184 15 0
185 15 11
186 15 19
187 15 203
188 15 31
189 15 41
190 15 48
191 15 52
192 15 64
193 15 68
194 15 71
195 15 77
196 15 86
197 16 0
198 16 203
199 17 0
200 17 106
201 17 112
202 17 115
203 17 122
204 17 124
205 17 127
206 17 133
207 17 136
208 17 143
209 17 150
210 17 153
211 17 156
212 17 16
213 17 160
214 17 163
215 17 203
216 17 26
217 17 27
218 17 28
219 17 33
220 17 34
221 17 35
222 17 59
223 17 60
224 17 73
225 17 74
226 17 79
227 17 80
228 17 81
229 17 88
230 17 89
231 18 0
232 18 102
233 18 110
234 18 116
235 18 131
236 18 137
237 18 203
238 18 66
239 18 67
240 25 101
241 25 102
242 25 104
243 25 105
244 25 108
245 25 109
246 25 113
247 25 114
248 25 117
249 25 118
250 25 119
251 25 12
252 25 124
253 25 126
254 25 129
255 25 130
256 25 134
257 25 135
258 25 138
259 25 139
260 25 14
261 25 140
262 25 145
263 25 147
264 25 150
265 25 151
266 25 155
267 25 156
268 25 159
269 25 16
270 25 160
271 25 161
272 25 166
273 25 168
274 25 171
275 25 172
276 25 176
277 25 177
278 25 18
279 25 180
280 25 181
281 25 182
282 25 187
283 25 189
284 25 19
285 25 191
286 25 192
287 25 21
288 25 23
289 25 25
290 25 32
291 25 34
292 25 35
293 25 40
294 25 43
295 25 47
296 25 49
297 25 51
298 25 56
299 25 60
300 25 62
301 25 64
302 25 65
303 25 66
304 25 68
305 25 70
306 25 78
307 25 82
308 25 84
309 25 85
310 25 86
311 25 87
312 25 89
313 25 90
314 25 91
315 25 93
316 25 97
317 25 98
318 25 99
319 26 111
320 26 132
321 26 153
322 26 174
323 28 11
324 28 13
325 28 15
326 28 195
327 28 20
328 28 28
329 28 31
330 28 38
331 28 46
332 28 49
333 28 54
334 28 59
335 28 61
336 28 63
337 28 7
338 28 70
339 28 72
340 28 74
341 28 81
342 28 84
343 28 96
344 31 16
345 31 21
346 31 32
347 31 42
348 31 50
349 31 55
350 32 16
351 32 21
352 32 25
353 32 32
354 32 35
355 32 42
356 32 47
357 32 50
358 32 55
359 32 68
360 32 78
361 32 82
362 32 93
363 33 12
364 33 14
365 33 17
366 33 19
367 33 22
368 33 25
369 33 33
370 33 35
371 33 42
372 33 47
373 33 50
374 33 55
375 33 60
376 33 62
377 33 68
378 33 78
379 33 82
380 33 93
381 34 12
382 34 14
383 34 16
384 34 19
385 34 194
386 34 21
387 34 25
388 34 29
389 34 32
390 34 35
391 34 42
392 34 47
393 34 5
394 34 50
395 34 55
396 34 60
397 34 62
398 34 68
399 34 71
400 34 78
401 34 82
402 34 93
403 35 25
404 35 35
405 35 42
406 35 50
407 35 55
408 35 78
409 35 8
410 35 93
411 36 0
412 36 203
413 37 0
414 38 0
415 38 11
416 38 13
417 38 15
418 38 18
419 38 195
420 38 20
421 38 23
422 38 28
423 38 34
424 38 38
425 38 61
426 38 63
427 38 72
428 38 74
429 38 81
430 38 96
431 40 102
432 40 105
433 40 108
434 40 114
435 40 117
436 40 124
437 40 126
438 40 129
439 40 135
440 40 138
441 40 145
442 40 147
443 40 150
444 40 156
445 40 159
446 40 166
447 40 168
448 40 171
449 40 177
450 40 180
451 40 187
452 40 189
453 40 192
454 40 40
455 40 65
456 40 66
457 40 86
458 40 87
459 40 90
460 40 91
461 40 98
462 40 99
463 41 112
464 41 118
465 41 133
466 41 139
467 41 154
468 41 160
469 41 175
470 41 181
471 41 26
472 41 27
473 41 36
474 41 37
475 41 44
476 41 45
477 41 52
478 41 53
479 41 57
480 41 58
481 41 79
482 41 80
483 41 94
484 41 95
485 48 12
486 48 121
487 48 122
488 48 132
489 48 133
490 48 135
491 48 147
492 48 148
493 48 149
494 48 15
495 48 150
496 48 17
497 48 174
498 48 175
499 48 179
500 48 180
501 48 183
502 48 184
503 48 185
504 48 190
505 48 192
506 48 25
507 48 27
508 48 32
509 48 35
510 48 37
511 48 39
512 48 40
513 48 44
514 48 45
515 48 46
516 48 65
517 48 67
518 48 80
519 48 81
520 48 85
521 48 86
522 48 89
523 48 90
524 48 91
525 48 96
526 48 98
527 49 136
528 49 177
529 49 83
530 51 11
531 51 13
532 51 17
533 51 196
534 51 20
535 51 24
536 51 26
537 51 30
538 51 36
539 51 43
540 51 51
541 51 55
542 51 59
543 51 7
544 51 70
545 51 73
546 51 75
547 52 0
548 53 0
549 53 203
550 54 0
551 54 203
552 54 37
553 55 15
554 55 166
555 55 27
556 55 37
557 55 40
558 55 52
559 55 55
560 55 59
561 56 12
562 56 15
563 56 25
564 56 27
565 56 35
566 56 38
567 56 40
568 56 53
569 56 57
570 57 100
571 57 12
572 57 15
573 57 166
574 57 18
575 57 194
576 57 25
577 57 27
578 57 35
579 57 37
580 57 40
581 57 5
582 57 61
583 57 69
584 57 72
585 58 21
586 58 27
587 58 40
588 58 48
589 58 8
590 61 11
591 61 13
592 61 24
593 61 26
594 61 30
595 61 36
596 61 39
597 61 43
598 61 51
599 61 54
600 61 58
601 61 70
602 61 73
603 61 75
604 63 0
605 63 121
606 63 147
607 63 149
608 63 174
609 63 180
610 63 183
611 63 190
612 63 192
613 63 203
614 63 32
615 63 45
616 63 46
617 63 80
618 63 86
619 63 89
620 63 96
621 63 98
622 64 120
623 64 131
624 64 137
625 64 150
626 64 178
627 64 184
628 64 28
629 64 29
630 64 41
631 64 42
632 64 84
633 64 90
634 71 103
635 71 105
636 71 108
637 71 109
638 71 113
639 71 114
640 71 117
641 71 118
642 71 119
643 71 124
644 71 131
645 71 132
646 71 136
647 71 137
648 71 140
649 71 141
650 71 142
651 71 147
652 71 154
653 71 155
654 71 159
655 71 16
656 71 160
657 71 163
658 71 164
659 71 165
660 71 170
661 71 172
662 71 174
663 71 175
664 71 177
665 71 178
666 71 185
667 71 19
668 71 20
669 71 21
670 71 23
671 71 25
672 71 26
673 71 27
674 71 29
675 71 31
676 71 32
677 71 34
678 71 35
679 71 36
680 71 40
681 71 41
682 71 42
683 71 44
684 71 46
685 71 47
686 71 48
687 71 49
688 71 59
689 71 61
690 71 66
691 71 67
692 71 71
693 71 72
694 71 75
695 71 76
696 71 77
697 71 82
698 71 84
699 71 87
700 71 88
701 71 9
702 71 92
703 71 93
704 71 96
705 71 97
706 71 98
707 72 0
708 72 111
709 72 134
710 72 157
711 72 203
712 72 69
713 72 90
714 73 0
715 74 0
716 74 190
717 74 193
718 74 197
719 74 24
720 74 33
721 74 54
722 74 6
723 77 29
724 77 44
725 78 29
726 78 44
727 79 23
728 79 30
729 79 32
730 79 45
731 80 126
732 80 149
733 80 188
734 80 191
735 80 23
736 80 29
737 80 32
738 80 44
739 80 5
740 80 55
741 81 51
742 84 24
743 84 31
744 84 33
745 84 46
746 84 54
747 84 6
748 86 103
749 86 105
750 86 108
751 86 114
752 86 117
753 86 124
754 86 131
755 86 137
756 86 140
757 86 147
758 86 154
759 86 160
760 86 163
761 86 170
762 86 172
763 86 175
764 86 178
765 86 20
766 86 21
767 86 26
768 86 27
769 86 35
770 86 36
771 86 41
772 86 42
773 86 48
774 86 49
775 86 66
776 86 72
777 86 75
778 86 82
779 86 84
780 86 87
781 86 9
782 86 93
783 86 96
784 87 0
785 87 112
786 87 118
787 87 135
788 87 141
789 87 158
790 87 16
791 87 164
792 87 185
793 87 70
794 87 76
795 87 91
796 87 97
797 88 0
798 89 0
799 89 203
800 90 0
801 90 203
802 94 100
803 94 102
804 94 104
805 94 108
806 94 109
807 94 110
808 94 111
809 94 114
810 94 116
811 94 118
812 94 12
813 94 120
814 94 121
815 94 122
816 94 127
817 94 128
818 94 132
819 94 133
820 94 136
821 94 137
822 94 138
823 94 14
824 94 143
825 94 145
826 94 147
827 94 148
828 94 149
829 94 15
830 94 151
831 94 153
832 94 154
833 94 156
834 94 158
835 94 163
836 94 165
837 94 177
838 94 178
839 94 181
840 94 182
841 94 184
842 94 187
843 94 194
844 94 23
845 94 25
846 94 27
847 94 29
848 94 30
849 94 34
850 94 35
851 94 36
852 94 38
853 94 40
854 94 45
855 94 51
856 94 54
857 94 56
858 94 60
859 94 65
860 94 69
861 94 70
862 94 71
863 94 73
864 94 75
865 94 77
866 94 78
867 94 79
868 94 89
869 94 9
870 94 91
871 94 95
872 94 98
873 95 130
874 97 107
875 97 115
876 97 117
877 97 120
878 97 14
879 97 155
880 97 158
881 97 162
882 97 165
883 97 168
884 97 171
885 97 175
886 97 18
887 97 185
888 97 33
889 97 37
890 97 39
891 97 43
892 97 48
893 97 52
894 97 55
895 97 59
896 97 6
897 97 63
898 97 68
899 97 75
900 97 84
901 97 96
902 100 102
903 100 151
904 100 27
905 100 34
906 100 44
907 100 64
908 100 98
909 101 102
910 101 118
911 101 12
912 101 15
913 101 151
914 101 156
915 101 163
916 101 27
917 101 30
918 101 34
919 101 40
920 101 44
921 101 56
922 101 60
923 101 64
924 101 73
925 101 98
926 102 103
927 102 114
928 102 116
929 102 118
930 102 12
931 102 15
932 102 152
933 102 154
934 102 156
935 102 163
936 102 184
937 102 28
938 102 30
939 102 34
940 102 38
941 102 40
942 102 44
943 102 51
944 102 54
945 102 56
946 102 60
947 102 64
948 102 73
949 102 95
950 102 99
951 103 102
952 103 105
953 103 114
954 103 116
955 103 118
956 103 12
957 103 15
958 103 151
959 103 154
960 103 156
961 103 163
962 103 166
963 103 169
964 103 184
965 103 19
966 103 27
967 103 30
968 103 34
969 103 38
970 103 40
971 103 44
972 103 5
973 103 51
974 103 54
975 103 56
976 103 60
977 103 64
978 103 73
979 103 85
980 103 95
981 103 98
982 104 15
983 104 159
984 104 30
985 104 40
986 104 44
987 104 56
988 104 60
989 104 64
990 104 81
991 107 100
992 107 104
993 107 115
994 107 117
995 107 153
996 107 155
997 107 162
998 107 18
999 107 185
1000 107 29
1001 107 33
1002 107 37
1003 107 39
1004 107 43
1005 107 52
1006 107 55
1007 107 59
1008 107 6
1009 107 63
1010 107 84
1011 107 96
1012 108 0
1013 108 203
1014 109 0
1015 109 109
1016 109 110
1017 109 111
1018 109 122
1019 109 127
1020 109 133
1021 109 136
1022 109 143
1023 109 145
1024 109 148
1025 109 149
1026 109 178
1027 109 181
1028 109 182
1029 109 187
1030 109 70
1031 109 71
1032 109 78
1033 109 79
1034 109 9
1035 110 131
1036 110 137
1037 110 16
1038 110 17
1039 110 194
1040 110 31
1041 110 32
1042 110 41
1043 110 42
1044 110 46
1045 110 47
1046 110 57
1047 110 58
1048 110 61
1049 110 62
1050 110 66
1051 110 67
1052 117 102
1053 117 103
1054 117 104
1055 117 108
1056 117 115
1057 117 116
1058 117 118
1059 117 119
1060 117 12
1061 117 120
1062 117 127
1063 117 128
1064 117 132
1065 117 133
1066 117 136
1067 117 137
1068 117 138
1069 117 14
1070 117 143
1071 117 145
1072 117 148
1073 117 149
1074 117 15
1075 117 151
1076 117 155
1077 117 157
1078 117 159
1079 117 160
1080 117 162
1081 117 163
1082 117 164
1083 117 180
1084 117 184
1085 117 19
1086 117 195
1087 117 20
1088 117 21
1089 117 31
1090 117 33
1091 117 35
1092 117 37
1093 117 38
1094 117 42
1095 117 44
1096 117 57
1097 117 58
1098 117 59
1099 117 60
1100 117 62
1101 117 64
1102 117 65
1103 117 66
1104 117 68
1105 117 72
1106 117 73
1107 117 74
1108 117 76
1109 117 77
1110 117 78
1111 117 80
1112 117 89
1113 117 95
1114 117 98
1115 117 99
1116 118 130
1117 120 109
1118 120 113
1119 120 121
1120 120 124
1121 120 14
1122 120 154
1123 120 18
1124 120 185
1125 120 187
1126 120 190
1127 120 192
1128 120 26
1129 120 28
1130 120 32
1131 120 34
1132 120 41
1133 120 43
1134 120 47
1135 120 50
1136 120 54
1137 120 6
1138 120 64
1139 120 71
1140 120 8
1141 120 83
1142 120 94
1143 120 96
1144 123 118
1145 123 155
1146 123 35
1147 124 118
1148 124 12
1149 124 15
1150 124 151
1151 124 155
1152 124 35
1153 124 38
1154 124 44
1155 124 62
1156 124 68
1157 124 80
1158 125 108
1159 125 118
1160 125 12
1161 125 15
1162 125 151
1163 125 156
1164 125 184
1165 125 31
1166 125 33
1167 125 36
1168 125 38
1169 125 42
1170 125 44
1171 125 62
1172 125 68
1173 125 80
1174 125 95
1175 126 0
1176 126 108
1177 126 118
1178 126 12
1179 126 122
1180 126 15
1181 126 151
1182 126 155
1183 126 170
1184 126 184
1185 126 186
1186 126 189
1187 126 27
1188 126 31
1189 126 33
1190 126 35
1191 126 38
1192 126 42
1193 126 44
1194 126 48
1195 126 5
1196 126 62
1197 126 68
1198 126 80
1199 126 92
1200 126 95
1201 127 110
1202 127 15
1203 127 151
1204 127 23
1205 127 38
1206 127 44
1207 127 68
1208 127 80
1209 130 109
1210 130 113
1211 130 121
1212 130 154
1213 130 157
1214 130 18
1215 130 185
1216 130 187
1217 130 190
1218 130 192
1219 130 26
1220 130 28
1221 130 32
1222 130 34
1223 130 37
1224 130 41
1225 130 43
1226 130 47
1227 130 6
1228 130 71
1229 130 8
1230 130 83
1231 130 96
1232 132 103
1233 132 104
1234 132 115
1235 132 116
1236 132 127
1237 132 133
1238 132 136
1239 132 143
1240 132 145
1241 132 148
1242 132 149
1243 132 159
1244 132 160
1245 132 163
1246 132 164
1247 132 195
1248 132 20
1249 132 21
1250 132 57
1251 132 58
1252 132 59
1253 132 60
1254 132 66
1255 132 73
1256 132 74
1257 132 77
1258 132 78
1259 132 99
1260 133 131
1261 133 137
1262 133 152
1263 133 153
1264 133 16
1265 133 17
1266 133 180
1267 133 39
1268 133 40
1269 133 45
1270 133 46
1271 133 69
1272 133 70
1273 133 81
1274 133 82
1275 133 89
1276 140 103
1277 140 128
1278 140 129
1279 140 133
1280 140 134
1281 140 137
1282 140 138
1283 140 139
1284 140 144
1285 140 146
1286 140 150
1287 140 16
1288 140 168
1289 140 175
1290 140 178
1291 140 179
1292 140 18
1293 140 185
1294 140 187
1295 140 22
1296 140 24
1297 140 26
1298 140 28
1299 140 31
1300 140 33
1301 140 35
1302 140 37
1303 140 39
1304 140 42
1305 140 43
1306 140 47
1307 140 53
1308 140 74
1309 140 78
1310 140 80
1311 140 82
1312 140 84
1313 140 87
1314 140 91
1315 141 131
1316 143 11
1317 143 122
1318 143 126
1319 143 190
1320 143 193
1321 143 195
1322 143 23
1323 143 27
1324 143 31
1325 143 34
1326 143 38
1327 143 42
1328 143 46
1329 143 50
1330 143 7
1331 143 71
1332 143 79
1333 143 83
1334 143 87
1335 144 0
1336 147 21
1337 147 32
1338 147 43
1339 147 47
1340 147 77
1341 148 101
1342 148 148
1343 148 21
1344 148 32
1345 148 43
1346 148 47
1347 148 51
1348 148 77
1349 148 90
1350 149 101
1351 149 12
1352 149 120
1353 149 148
1354 149 181
1355 149 189
1356 149 192
1357 149 21
1358 149 32
1359 149 43
1360 149 47
1361 149 5
1362 149 51
1363 149 70
1364 149 77
1365 149 90
1366 150 123
1367 150 43
1368 150 47
1369 150 8
1370 153 11
1371 153 126
1372 153 190
1373 153 193
1374 153 195
1375 153 46
1376 153 50
1377 153 71
1378 155 128
1379 155 134
1380 155 137
1381 155 144
1382 155 146
1383 155 168
1384 155 179
1385 155 74
1386 156 132
1387 156 138
1388 156 175
1389 156 44
1390 156 45
1391 156 48
1392 156 49
1393 162 0
1394 163 102
1395 163 103
1396 163 107
1397 163 12
1398 163 125
1399 163 126
1400 163 13
1401 163 130
1402 163 131
1403 163 134
1404 163 135
1405 163 136
1406 163 141
1407 163 143
1408 163 146
1409 163 147
1410 163 151
1411 163 152
1412 163 155
1413 163 156
1414 163 157
1415 163 16
1416 163 162
1417 163 164
1418 163 170
1419 163 172
1420 163 182
1421 163 183
1422 163 191
1423 163 192
1424 163 23
1425 163 26
1426 163 28
1427 163 29
1428 163 31
1429 163 32
1430 163 34
1431 163 36
1432 163 44
1433 163 47
1434 163 51
1435 163 53
1436 163 57
1437 163 59
1438 163 66
1439 163 68
1440 163 70
1441 163 75
1442 163 77
1443 163 81
1444 163 83
1445 163 88
1446 163 90
1447 163 92
1448 163 94
1449 163 97
1450 163 99
1451 164 128
1452 164 149
1453 166 11
1454 166 175
1455 166 178
1456 166 180
1457 166 188
1458 166 196
1459 166 31
1460 166 34
1461 166 45
1462 166 50
1463 166 53
1464 166 55
1465 166 63
1466 166 67
1467 166 7
1468 166 70
1469 166 73
1470 166 76
1471 166 80
1472 166 82
1473 166 86
1474 166 89
1475 166 93
1476 166 97
1477 169 26
1478 169 46
1479 169 57
1480 170 26
1481 170 29
1482 170 32
1483 170 46
1484 170 51
1485 170 57
1486 170 68
1487 170 77
1488 170 83
1489 170 87
1490 171 105
1491 171 27
1492 171 29
1493 171 32
1494 171 35
1495 171 44
1496 171 46
1497 171 51
1498 171 58
1499 171 66
1500 171 68
1501 171 75
1502 171 77
1503 171 81
1504 171 83
1505 171 87
1506 172 105
1507 172 166
1508 172 174
1509 172 177
1510 172 194
1511 172 26
1512 172 29
1513 172 32
1514 172 35
1515 172 44
1516 172 46
1517 172 5
1518 172 51
1519 172 54
1520 172 57
1521 172 66
1522 172 68
1523 172 71
1524 172 75
1525 172 77
1526 172 81
1527 172 83
1528 172 87
1529 173 185
1530 173 46
1531 173 60
1532 173 77
1533 173 8
1534 173 83
1535 176 11
1536 176 175
1537 176 178
1538 176 180
1539 176 188
1540 176 28
1541 176 45
1542 176 55
1543 176 59
1544 176 63
1545 176 67
1546 176 76
1547 176 80
1548 176 82
1549 176 86
1550 178 103
1551 178 125
1552 178 13
1553 178 131
1554 178 134
1555 178 141
1556 178 143
1557 178 146
1558 178 152
1559 178 155
1560 178 16
1561 178 162
1562 178 164
1563 178 183
1564 178 191
1565 178 99
1566 179 129
1567 179 135
1568 179 150
1569 179 156
1570 179 23
1571 179 48
1572 179 49
1573 179 78
1574 179 79
1575 179 84
1576 179 85
1577 186 100
1578 186 107
1579 186 108
1580 186 112
1581 186 113
1582 186 116
1583 186 117
1584 186 118
1585 186 123
1586 186 125
1587 186 128
1588 186 129
1589 186 13
1590 186 133
1591 186 134
1592 186 137
1593 186 138
1594 186 139
1595 186 144
1596 186 146
1597 186 149
1598 186 150
1599 186 154
1600 186 155
1601 186 158
1602 186 159
1603 186 160
1604 186 165
1605 186 167
1606 186 178
1607 186 179
1608 186 18
1609 186 185
1610 186 192
1611 186 27
1612 186 31
1613 186 34
1614 186 35
1615 186 36
1616 186 39
1617 186 41
1618 186 43
1619 186 45
1620 186 54
1621 186 6
1622 186 70
1623 186 72
1624 186 75
1625 186 80
1626 186 82
1627 186 84
1628 186 86
1629 186 89
1630 186 98
1631 187 110
1632 187 131
1633 187 152
1634 189 103
1635 189 171
1636 189 175
1637 189 182
1638 189 19
1639 189 197
1640 189 23
1641 189 30
1642 189 32
1643 189 40
1644 189 44
1645 189 48
1646 189 50
1647 189 55
1648 189 59
1649 189 66
1650 189 71
1651 189 73
1652 189 78
1653 189 81
1654 189 85
1655 189 89
1656 189 93
1657 190 0
1658 192 74
1659 193 20
1660 193 27
1661 193 38
1662 193 56
1663 193 63
1664 193 74
1665 193 79
1666 194 18
1667 194 20
1668 194 27
1669 194 31
1670 194 38
1671 194 54
1672 194 56
1673 194 63
1674 194 70
1675 194 72
1676 194 74
1677 194 79
1678 195 102
1679 195 169
1680 195 18
1681 195 181
1682 195 195
1683 195 20
1684 195 27
1685 195 31
1686 195 38
1687 195 47
1688 195 54
1689 195 56
1690 195 63
1691 195 70
1692 195 72
1693 195 74
1694 195 79
1695 195 94
1696 196 20
1697 196 27
1698 196 56
1699 196 63
1700 196 74
1701 196 90
1702 199 0
1703 199 103
1704 199 182
1705 199 19
1706 199 23
1707 199 30
1708 199 32
1709 199 48
1710 199 50
1711 199 55
1712 199 59
1713 199 66
1714 199 71
1715 199 73
1716 199 93
1717 201 107
1718 201 113
1719 201 116
1720 201 123
1721 201 125
1722 201 128
1723 201 134
1724 201 137
1725 201 144
1726 201 146
1727 201 149
1728 201 155
1729 201 158
1730 201 165
1731 201 167
1732 201 179
1733 201 185
1734 201 34
1735 201 6
1736 202 111
1737 202 117
1738 202 13
1739 202 132
1740 202 138
1741 202 153
1742 202 159
1743 202 192
1744 202 21
1745 202 23
1746 202 24
1747 202 25
1748 202 28
1749 202 29
1750 202 35
1751 202 57
1752 202 59
1753 202 60
1754 202 61
1755 202 64
1756 202 66
1757 202 67
1758 202 68
1759 202 76
1760 202 77
1761 206 0
1762 208 0
1763 209 100
1764 209 104
1765 209 130
1766 209 131
1767 209 133
1768 209 136
1769 209 140
1770 209 144
1771 209 149
1772 209 158
1773 209 16
1774 209 163
1775 209 165
1776 209 167
1777 209 169
1778 209 171
1779 209 173
1780 209 175
1781 209 177
1782 209 179
1783 209 18
1784 209 181
1785 209 182
1786 209 183
1787 209 185
1788 209 187
1789 209 188
1790 209 190
1791 209 191
1792 209 192
1793 209 195
1794 209 20
1795 209 21
1796 209 22
1797 209 24
1798 209 26
1799 209 27
1800 209 30
1801 209 32
1802 209 34
1803 209 36
1804 209 39
1805 209 40
1806 209 41
1807 209 45
1808 209 47
1809 209 50
1810 209 53
1811 209 70
1812 209 75
1813 209 77
1814 209 79
1815 209 81
1816 209 84
1817 209 98
1818 212 11
1819 212 123
1820 212 127
1821 212 134
1822 212 139
1823 212 143
1824 212 147
1825 212 152
1826 212 26
1827 212 28
1828 212 31
1829 212 35
1830 212 46
1831 212 50
1832 212 7
1833 212 73
1834 212 76
1835 212 80
1836 212 84
1837 212 88
1838 212 92
1839 215 135
1840 215 148
1841 215 170
1842 215 178
1843 215 185
1844 216 135
1845 216 140
1846 216 144
1847 216 148
1848 216 163
1849 216 171
1850 216 181
1851 216 185
1852 216 190
1853 216 203
1854 216 24
1855 216 29
1856 216 44
1857 216 70
1858 216 74
1859 216 85
1860 216 88
1861 216 92
1862 217 0
1863 217 102
1864 217 133
1865 217 135
1866 217 140
1867 217 144
1868 217 148
1869 217 186
1870 217 203
1871 217 24
1872 217 27
1873 217 29
1874 217 44
1875 217 51
1876 217 70
1877 217 74
1878 217 86
1879 217 90
1880 218 102
1881 218 12
1882 218 121
1883 218 133
1884 218 135
1885 218 140
1886 218 144
1887 218 148
1888 218 180
1889 218 185
1890 218 189
1891 218 203
1892 218 24
1893 218 27
1894 218 29
1895 218 44
1896 218 5
1897 218 51
1898 218 70
1899 218 74
1900 218 94
1901 219 124
1902 219 135
1903 219 140
1904 219 144
1905 219 148
1906 219 170
1907 219 178
1908 219 70
1909 219 8
1910 222 11
1911 222 127
1912 222 134
1913 222 143
1914 222 147
1915 222 170
1916 222 178
1917 222 183
1918 222 187
1919 222 192
1920 222 28
1921 222 73
1922 222 87
1923 222 91
1924 224 131
1925 224 195
1926 224 21
1927 224 22
1928 224 39
1929 225 137
1930 225 138
1931 225 141
1932 225 142
1933 225 145
1934 225 146
1935 225 150
1936 225 151
1937 225 158
1938 225 40
1939 225 71
1940 225 72
1941 226 0
1942 232 113
1943 232 117
1944 232 122
1945 232 127
1946 232 128
1947 232 13
1948 232 132
1949 232 133
1950 232 136
1951 232 137
1952 232 138
1953 232 143
1954 232 145
1955 232 147
1956 232 149
1957 232 15
1958 232 151
1959 232 152
1960 232 154
1961 232 155
1962 232 157
1963 232 167
1964 232 168
1965 232 17
1966 232 170
1967 232 171
1968 232 178
1969 232 18
1970 232 180
1971 232 182
1972 232 184
1973 232 186
1974 232 188
1975 232 190
1976 232 192
1977 232 195
1978 232 20
1979 232 203
1980 232 22
1981 232 23
1982 232 25
1983 232 31
1984 232 33
1985 232 41
1986 232 43
1987 232 45
1988 232 47
1989 232 50
1990 232 60
1991 232 63
1992 232 76
1993 233 130
1994 233 203
1995 234 203
1996 235 0
1997 235 103
1998 235 108
1999 235 116
2000 235 120
2001 235 125
2002 235 13
2003 235 148
2004 235 151
2005 235 157
2006 235 160
2007 235 164
2008 235 17
2009 235 175
2010 235 19
2011 235 22
2012 235 24
2013 235 26
2014 235 36
2015 235 42
2016 235 46
2017 235 50
2018 235 54
2019 235 58
2020 235 6
2021 235 61
2022 235 66
2023 235 71
2024 235 77
2025 235 8
2026 235 82
2027 235 91
2028 235 99
2029 238 100
2030 238 121
2031 238 152
2032 238 185
2033 238 193
2034 238 62
2035 238 67
2036 238 73
2037 238 78
2038 238 84
2039 238 87
2040 238 93
2041 239 113
2042 239 117
2043 239 121
2044 239 149
2045 239 15
2046 239 152
2047 239 155
2048 239 178
2049 239 186
2050 239 20
2051 239 40
2052 239 51
2053 239 54
2054 239 58
2055 239 62
2056 239 67
2057 239 73
2058 239 78
2059 239 84
2060 239 87
2061 239 93
2062 240 113
2063 240 117
2064 240 12
2065 240 121
2066 240 147
2067 240 149
2068 240 15
2069 240 153
2070 240 155
2071 240 18
2072 240 20
2073 240 23
2074 240 25
2075 240 40
2076 240 52
2077 240 56
2078 240 60
2079 240 62
2080 240 67
2081 240 73
2082 240 76
2083 240 78
2084 240 84
2085 240 87
2086 240 93
2087 241 113
2088 241 117
2089 241 12
2090 241 121
2091 241 147
2092 241 149
2093 241 15
2094 241 152
2095 241 155
2096 241 158
2097 241 173
2098 241 18
2099 241 20
2100 241 23
2101 241 25
2102 241 27
2103 241 35
2104 241 40
2105 241 5
2106 241 60
2107 241 62
2108 241 67
2109 241 74
2110 241 76
2111 241 78
2112 241 85
2113 241 87
2114 241 94
2115 242 113
2116 242 117
2117 242 121
2118 242 185
2119 242 193
2120 242 62
2121 242 67
2122 242 78
2123 242 87
2124 242 96
2125 244 0
2126 245 0
2127 245 103
2128 245 108
2129 245 116
2130 245 120
2131 245 13
2132 245 148
2133 245 154
2134 245 185
2135 245 19
2136 245 193
2137 245 24
2138 245 26
2139 245 36
2140 245 53
2141 245 57
2142 245 6
2143 245 61
2144 245 77
2145 245 8
2146 245 99
2147 247 127
2148 247 133
2149 247 136
2150 247 143
2151 247 145
2152 247 167
2153 247 171
2154 247 195
2155 248 114
2156 248 115
2157 248 118
2158 248 119
2159 248 123
2160 248 124
2161 248 131
2162 248 137
2163 248 64
2164 248 65
2165 248 68
2166 248 69
2167 248 71
2168 248 72
2169 248 73
2170 248 79
2171 248 80
2172 248 82
2173 248 83
2174 248 84
2175 248 88
2176 248 89
2177 248 91
2178 248 92
2179 248 93
2180 253 0
2181 255 11
2182 255 122
2183 255 123
2184 255 133
2185 255 134
2186 255 136
2187 255 148
2188 255 149
2189 255 150
2190 255 151
2191 255 17
2192 255 174
2193 255 176
2194 255 177
2195 255 178
2196 255 180
2197 255 182
2198 255 184
2199 255 186
2200 255 19
2201 255 24
2202 255 26
2203 255 28
2204 255 30
2205 255 32
2206 255 34
2207 255 36
2208 255 38
2209 255 40
2210 255 42
2211 255 43
2212 255 44
2213 255 46
2214 255 48
2215 255 49
2216 255 50
2217 255 52
2218 255 54
2219 255 55
2220 255 56
2221 255 58
2222 255 60
2223 255 61
2224 255 62
2225 255 64
2226 255 66
2227 255 67
2228 255 68
2229 255 70
2230 255 72
2231 255 73
2232 255 74
2233 255 84
2234 256 137
2235 258 0
2236 258 11
2237 258 190
2238 258 193
2239 258 197
2240 258 22
2241 258 6
2242 258 79
2243 258 8
2244 261 187
2245 261 31
2246 261 39
2247 262 0
2248 262 167
2249 262 176
2250 262 180
2251 262 24
2252 262 32
2253 262 42
2254 262 48
2255 262 54
2256 262 60
2257 262 66
2258 262 72
2259 263 10
2260 263 82
2261 264 10
2262 264 101
2263 264 13
2264 264 167
2265 264 175
2266 264 188
2267 264 191
2268 264 21
2269 264 41
2270 264 47
2271 264 5
2272 264 53
2273 264 59
2274 264 65
2275 264 71
2276 264 82
2277 265 187
2278 265 31
2279 265 39
2280 265 76
2281 268 0
2282 268 11
2283 268 178
2284 268 187
2285 268 203
2286 268 22
2287 268 31
2288 268 39
2289 268 44
2290 268 50
2291 268 56
2292 268 6
2293 268 62
2294 268 68
2295 268 74
2296 268 79
2297 268 8
2298 270 122
2299 270 148
2300 270 150
2301 271 0
2302 271 121
2303 271 132
2304 271 138
2305 271 151
2306 278 101
2307 278 103
2308 278 105
2309 278 107
2310 278 109
2311 278 11
2312 278 111
2313 278 113
2314 278 115
2315 278 116
2316 278 117
2317 278 119
2318 278 121
2319 278 122
2320 278 123
2321 278 126
2322 278 127
2323 278 13
2324 278 131
2325 278 132
2326 278 135
2327 278 136
2328 278 137
2329 278 142
2330 278 144
2331 278 147
2332 278 148
2333 278 15
2334 278 152
2335 278 153
2336 278 156
2337 278 157
2338 278 158
2339 278 163
2340 278 165
2341 278 167
2342 278 169
2343 278 17
2344 278 170
2345 278 171
2346 278 173
2347 278 175
2348 278 176
2349 278 177
2350 278 179
2351 278 181
2352 278 182
2353 278 183
2354 278 186
2355 278 188
2356 278 19
2357 278 190
2358 278 192
2359 278 21
2360 278 23
2361 278 25
2362 278 27
2363 278 29
2364 278 31
2365 278 33
2366 278 35
2367 278 37
2368 278 39
2369 278 41
2370 278 43
2371 278 45
2372 278 47
2373 278 49
2374 278 51
2375 278 53
2376 278 55
2377 278 57
2378 278 67
2379 278 69
2380 278 73
2381 278 75
2382 278 76
2383 278 77
2384 278 79
2385 278 81
2386 278 82
2387 278 83
2388 278 85
2389 278 87
2390 278 88
2391 278 89
2392 278 9
2393 278 91
2394 278 93
2395 278 94
2396 278 95
2397 278 97
2398 278 99
2399 279 129
2400 279 150
2401 280 0
2402 281 197
2403 281 6
2404 281 62
2405 283 0
2406 283 203
2407 284 104
2408 284 112
2409 284 18
2410 284 193
2411 284 26
2412 284 34
2413 284 42
2414 284 50
2415 284 58
2416 285 105
2417 285 11
2418 285 115
2419 285 121
2420 285 169
2421 285 175
2422 285 181
2423 285 186
2424 285 19
2425 285 27
2426 285 35
2427 285 43
2428 285 51
2429 285 75
2430 285 81
2431 285 87
2432 285 93
2433 285 97
2434 287 114
2435 287 120
2436 287 168
2437 287 174
2438 287 180
2439 287 5
2440 287 63
2441 287 74
2442 287 80
2443 287 86
2444 287 92
2445 288 0
2446 288 104
2447 288 112
2448 288 18
2449 288 193
2450 288 194
2451 288 203
2452 288 26
2453 288 34
2454 288 42
2455 288 50
2456 288 58
2457 288 59
2458 289 0
2459 291 0
2460 291 104
2461 291 112
2462 291 117
2463 291 123
2464 291 171
2465 291 177
2466 291 18
2467 291 183
2468 291 193
2469 291 197
2470 291 26
2471 291 34
2472 291 42
2473 291 50
2474 291 58
2475 291 6
2476 291 62
2477 291 77
2478 291 83
2479 291 89
2480 291 95
2481 293 126
2482 293 132
2483 293 135
2484 293 142
2485 293 144
2486 293 147
2487 293 153
2488 293 156
2489 293 163
2490 293 165
2491 293 9
2492 294 130
2493 294 136
2494 294 151
2495 294 157
2496 294 203
2497 295 203
2498 296 203
2499 297 203
2500 299 10
2501 299 100
2502 299 102
2503 299 103
2504 299 104
2505 299 105
2506 299 106
2507 299 107
2508 299 110
2509 299 112
2510 299 115
2511 299 118
2512 299 121
2513 299 124
2514 299 127
2515 299 13
2516 299 130
2517 299 136
2518 299 139
2519 299 142
2520 299 145
2521 299 148
2522 299 151
2523 299 154
2524 299 16
2525 299 160
2526 299 163
2527 299 166
2528 299 169
2529 299 172
2530 299 175
2531 299 178
2532 299 181
2533 299 184
2534 299 187
2535 299 19
2536 299 190
2537 299 193
2538 299 196
2539 299 199
2540 299 22
2541 299 25
2542 299 28
2543 299 31
2544 299 34
2545 299 37
2546 299 4
2547 299 40
2548 299 43
2549 299 46
2550 299 49
2551 299 52
2552 299 55
2553 299 58
2554 299 61
2555 299 64
2556 299 67
2557 299 7
2558 299 70
2559 299 73
2560 299 76
2561 299 79
2562 299 82
2563 299 88
2564 299 91
2565 299 94
2566 299 97
EOF
